50, 1109
24, 29
48, 58
96, 116
48, 58
13, 18
26, 36
26, 36
30, 35
60, 70
120, 140
60, 70
32, 37
32, 37
17, 22
34, 44
68, 88
6, 11
12, 22
18, 33
34, 39
68, 78
136, 156
68, 78
50, 55
3, 8
6, 16
3, 8
26, 31
33, 38
33, 38
5, 10
10, 20
20, 40
5, 10
40, 45
80, 90
160, 180
34, 39
68, 78
136, 156
49, 54
98, 108
49, 54
23, 28
46, 56
92, 112
23, 28
20, 25
20, 25
11, 16
